XSym
0005
d0638b94054c44b2ca8199723136b528
1.2.8
                                                                                                                                                                                                                                                                                                                                                                                                                                                                                                                                                                                                                                                                                                                                                                                                                                                                                                                                                                                                                                                          